p cnf 386 460
19 -5 -3 21 22 0
19 -5 -3 21 -22 0
19 -5 -3 -21 23 0
19 -5 -3 -21 -23 0
11 -3 20 24 25 0
11 -3 20 24 -25 0
11 -3 20 -24 26 0
11 -3 20 -24 -26 0
-17 -7 3 27 28 0
-17 -7 3 27 -28 0
-17 -7 3 -27 29 0
-17 -7 3 -27 -29 0
7 19 14 30 31 0
7 19 14 30 -31 0
7 19 14 -30 32 0
7 19 14 -30 -32 0
15 3 2 33 34 0
15 3 2 33 -34 0
15 3 2 -33 35 0
15 3 2 -33 -35 0
-1 -5 8 36 37 0
-1 -5 8 36 -37 0
-1 -5 8 -36 38 0
-1 -5 8 -36 -38 0
-1 -19 8 39 40 0
-1 -19 8 39 -40 0
-1 -19 8 -39 41 0
-1 -19 8 -39 -41 0
8 16 14 42 43 0
8 16 14 42 -43 0
8 16 14 -42 44 0
8 16 14 -42 -44 0
-19 -14 3 45 46 0
-19 -14 3 45 -46 0
-19 -14 3 -45 47 0
-19 -14 3 -45 -47 0
-16 -12 9 48 49 0
-16 -12 9 48 -49 0
-16 -12 9 -48 50 0
-16 -12 9 -48 -50 0
2 15 14 51 52 0
2 15 14 51 -52 0
2 15 14 -51 53 0
2 15 14 -51 -53 0
15 6 9 54 55 0
15 6 9 54 -55 0
15 6 9 -54 56 0
15 6 9 -54 -56 0
10 13 -4 57 58 0
10 13 -4 57 -58 0
10 13 -4 -57 59 0
10 13 -4 -57 -59 0
-9 -1 5 60 61 0
-9 -1 5 60 -61 0
-9 -1 5 -60 62 0
-9 -1 5 -60 -62 0
18 7 15 63 64 0
18 7 15 63 -64 0
18 7 15 -63 65 0
18 7 15 -63 -65 0
15 -5 4 66 67 0
15 -5 4 66 -67 0
15 -5 4 -66 68 0
15 -5 4 -66 -68 0
18 -9 -14 69 70 0
18 -9 -14 69 -70 0
18 -9 -14 -69 71 0
18 -9 -14 -69 -71 0
-14 1 -11 72 73 0
-14 1 -11 72 -73 0
-14 1 -11 -72 74 0
-14 1 -11 -72 -74 0
-8 13 14 75 76 0
-8 13 14 75 -76 0
-8 13 14 -75 77 0
-8 13 14 -75 -77 0
15 1 -12 78 79 0
15 1 -12 78 -79 0
15 1 -12 -78 80 0
15 1 -12 -78 -80 0
-17 2 -20 81 82 0
-17 2 -20 81 -82 0
-17 2 -20 -81 83 0
-17 2 -20 -81 -83 0
8 -6 -3 84 85 0
8 -6 -3 84 -85 0
8 -6 -3 -84 86 0
8 -6 -3 -84 -86 0
20 4 -15 87 88 0
20 4 -15 87 -88 0
20 4 -15 -87 89 0
20 4 -15 -87 -89 0
-3 9 -12 90 91 0
-3 9 -12 90 -91 0
-3 9 -12 -90 92 0
-3 9 -12 -90 -92 0
-2 15 17 93 94 0
-2 15 17 93 -94 0
-2 15 17 -93 95 0
-2 15 17 -93 -95 0
9 -1 -4 96 97 0
9 -1 -4 96 -97 0
9 -1 -4 -96 98 0
9 -1 -4 -96 -98 0
3 8 19 99 100 0
3 8 19 99 -100 0
3 8 19 -99 101 0
3 8 19 -99 -101 0
-20 -8 -13 102 103 0
-20 -8 -13 102 -103 0
-20 -8 -13 -102 104 0
-20 -8 -13 -102 -104 0
14 -1 2 105 106 0
14 -1 2 105 -106 0
14 -1 2 -105 107 0
14 -1 2 -105 -107 0
-1 -19 -17 108 109 0
-1 -19 -17 108 -109 0
-1 -19 -17 -108 110 0
-1 -19 -17 -108 -110 0
20 -1 -4 111 112 0
20 -1 -4 111 -112 0
20 -1 -4 -111 113 0
20 -1 -4 -111 -113 0
-11 -8 14 114 115 0
-11 -8 14 114 -115 0
-11 -8 14 -114 116 0
-11 -8 14 -114 -116 0
15 4 16 117 118 0
15 4 16 117 -118 0
15 4 16 -117 119 0
15 4 16 -117 -119 0
-3 -11 8 120 121 0
-3 -11 8 120 -121 0
-3 -11 8 -120 122 0
-3 -11 8 -120 -122 0
19 9 6 123 124 0
19 9 6 123 -124 0
19 9 6 -123 125 0
19 9 6 -123 -125 0
-10 8 9 126 127 0
-10 8 9 126 -127 0
-10 8 9 -126 128 0
-10 8 9 -126 -128 0
9 -15 19 129 130 0
9 -15 19 129 -130 0
9 -15 19 -129 131 0
9 -15 19 -129 -131 0
20 -15 17 132 133 0
20 -15 17 132 -133 0
20 -15 17 -132 134 0
20 -15 17 -132 -134 0
-12 -19 16 135 136 0
-12 -19 16 135 -136 0
-12 -19 16 -135 137 0
-12 -19 16 -135 -137 0
-8 17 16 138 139 0
-8 17 16 138 -139 0
-8 17 16 -138 140 0
-8 17 16 -138 -140 0
19 -17 -11 141 142 0
19 -17 -11 141 -142 0
19 -17 -11 -141 143 0
19 -17 -11 -141 -143 0
12 4 -11 144 145 0
12 4 -11 144 -145 0
12 4 -11 -144 146 0
12 4 -11 -144 -146 0
-9 17 -13 147 148 0
-9 17 -13 147 -148 0
-9 17 -13 -147 149 0
-9 17 -13 -147 -149 0
-11 -8 10 150 151 0
-11 -8 10 150 -151 0
-11 -8 10 -150 152 0
-11 -8 10 -150 -152 0
-14 8 13 153 154 0
-14 8 13 153 -154 0
-14 8 13 -153 155 0
-14 8 13 -153 -155 0
9 14 5 156 157 0
9 14 5 156 -157 0
9 14 5 -156 158 0
9 14 5 -156 -158 0
-18 16 17 159 160 0
-18 16 17 159 -160 0
-18 16 17 -159 161 0
-18 16 17 -159 -161 0
16 2 -8 162 163 0
16 2 -8 162 -163 0
16 2 -8 -162 164 0
16 2 -8 -162 -164 0
-20 -17 -8 165 166 0
-20 -17 -8 165 -166 0
-20 -17 -8 -165 167 0
-20 -17 -8 -165 -167 0
12 20 -7 168 169 0
12 20 -7 168 -169 0
12 20 -7 -168 170 0
12 20 -7 -168 -170 0
17 19 1 171 172 0
17 19 1 171 -172 0
17 19 1 -171 173 0
17 19 1 -171 -173 0
-20 19 -6 174 175 0
-20 19 -6 174 -175 0
-20 19 -6 -174 176 0
-20 19 -6 -174 -176 0
16 -1 13 177 178 0
16 -1 13 177 -178 0
16 -1 13 -177 179 0
16 -1 13 -177 -179 0
2 11 19 180 181 0
2 11 19 180 -181 0
2 11 19 -180 182 0
2 11 19 -180 -182 0
3 19 -10 183 184 0
3 19 -10 183 -184 0
3 19 -10 -183 185 0
3 19 -10 -183 -185 0
6 4 -13 186 187 0
6 4 -13 186 -187 0
6 4 -13 -186 188 0
6 4 -13 -186 -188 0
15 6 -14 189 190 0
15 6 -14 189 -190 0
15 6 -14 -189 191 0
15 6 -14 -189 -191 0
12 20 19 192 193 0
12 20 19 192 -193 0
12 20 19 -192 194 0
12 20 19 -192 -194 0
7 -4 20 195 196 0
7 -4 20 195 -196 0
7 -4 20 -195 197 0
7 -4 20 -195 -197 0
16 -7 -5 198 199 0
16 -7 -5 198 -199 0
16 -7 -5 -198 200 0
16 -7 -5 -198 -200 0
-10 17 11 201 202 0
-10 17 11 201 -202 0
-10 17 11 -201 203 0
-10 17 11 -201 -203 0
-11 -8 -20 204 205 0
-11 -8 -20 204 -205 0
-11 -8 -20 -204 206 0
-11 -8 -20 -204 -206 0
4 -12 17 207 208 0
4 -12 17 207 -208 0
4 -12 17 -207 209 0
4 -12 17 -207 -209 0
-14 -19 -6 210 211 0
-14 -19 -6 210 -211 0
-14 -19 -6 -210 212 0
-14 -19 -6 -210 -212 0
-15 -7 -19 213 214 0
-15 -7 -19 213 -214 0
-15 -7 -19 -213 215 0
-15 -7 -19 -213 -215 0
17 -1 -9 216 217 0
17 -1 -9 216 -217 0
17 -1 -9 -216 218 0
17 -1 -9 -216 -218 0
-13 -7 -19 219 220 0
-13 -7 -19 219 -220 0
-13 -7 -19 -219 221 0
-13 -7 -19 -219 -221 0
10 2 -3 222 223 0
10 2 -3 222 -223 0
10 2 -3 -222 224 0
10 2 -3 -222 -224 0
-13 3 16 225 226 0
-13 3 16 225 -226 0
-13 3 16 -225 227 0
-13 3 16 -225 -227 0
12 -16 13 228 229 0
12 -16 13 228 -229 0
12 -16 13 -228 230 0
12 -16 13 -228 -230 0
-3 -11 -4 231 232 0
-3 -11 -4 231 -232 0
-3 -11 -4 -231 233 0
-3 -11 -4 -231 -233 0
-2 11 7 234 235 0
-2 11 7 234 -235 0
-2 11 7 -234 236 0
-2 11 7 -234 -236 0
-11 -12 -6 237 238 0
-11 -12 -6 237 -238 0
-11 -12 -6 -237 239 0
-11 -12 -6 -237 -239 0
10 12 -18 240 241 0
10 12 -18 240 -241 0
10 12 -18 -240 242 0
10 12 -18 -240 -242 0
11 -1 16 243 244 0
11 -1 16 243 -244 0
11 -1 16 -243 245 0
11 -1 16 -243 -245 0
6 13 -20 246 247 0
6 13 -20 246 -247 0
6 13 -20 -246 248 0
6 13 -20 -246 -248 0
-9 5 8 249 250 0
-9 5 8 249 -250 0
-9 5 8 -249 251 0
-9 5 8 -249 -251 0
20 16 -2 252 253 0
20 16 -2 252 -253 0
20 16 -2 -252 254 0
20 16 -2 -252 -254 0
-1 18 -11 255 256 0
-1 18 -11 255 -256 0
-1 18 -11 -255 257 0
-1 18 -11 -255 -257 0
-17 -14 -1 258 259 0
-17 -14 -1 258 -259 0
-17 -14 -1 -258 260 0
-17 -14 -1 -258 -260 0
2 -3 -11 261 262 0
2 -3 -11 261 -262 0
2 -3 -11 -261 263 0
2 -3 -11 -261 -263 0
-11 -6 -15 264 265 0
-11 -6 -15 264 -265 0
-11 -6 -15 -264 266 0
-11 -6 -15 -264 -266 0
-11 -16 -20 267 268 0
-11 -16 -20 267 -268 0
-11 -16 -20 -267 269 0
-11 -16 -20 -267 -269 0
-16 6 -17 270 271 0
-16 6 -17 270 -271 0
-16 6 -17 -270 272 0
-16 6 -17 -270 -272 0
12 -6 7 273 274 0
12 -6 7 273 -274 0
12 -6 7 -273 275 0
12 -6 7 -273 -275 0
9 19 -20 276 277 0
9 19 -20 276 -277 0
9 19 -20 -276 278 0
9 19 -20 -276 -278 0
15 12 13 279 280 0
15 12 13 279 -280 0
15 12 13 -279 281 0
15 12 13 -279 -281 0
-20 -2 6 282 283 0
-20 -2 6 282 -283 0
-20 -2 6 -282 284 0
-20 -2 6 -282 -284 0
-14 3 -2 285 286 0
-14 3 -2 285 -286 0
-14 3 -2 -285 287 0
-14 3 -2 -285 -287 0
3 13 2 288 289 0
3 13 2 288 -289 0
3 13 2 -288 290 0
3 13 2 -288 -290 0
18 -7 11 291 292 0
18 -7 11 291 -292 0
18 -7 11 -291 293 0
18 -7 11 -291 -293 0
294 295 297 301 309 0
294 295 297 301 -309 0
294 295 297 -301 310 0
294 295 297 -301 -310 0
294 295 -297 302 311 0
294 295 -297 302 -311 0
294 295 -297 -302 312 0
294 295 -297 -302 -312 0
294 -295 298 303 313 0
294 -295 298 303 -313 0
294 -295 298 -303 314 0
294 -295 298 -303 -314 0
294 -295 -298 304 315 0
294 -295 -298 304 -315 0
294 -295 -298 -304 316 0
294 -295 -298 -304 -316 0
-294 296 299 305 317 0
-294 296 299 305 -317 0
-294 296 299 -305 318 0
-294 296 299 -305 -318 0
-294 296 -299 306 319 0
-294 296 -299 306 -319 0
-294 296 -299 -306 320 0
-294 296 -299 -306 -320 0
-294 -296 300 307 321 0
-294 -296 300 307 -321 0
-294 -296 300 -307 322 0
-294 -296 300 -307 -322 0
-294 -296 -300 308 323 0
-294 -296 -300 308 -323 0
-294 -296 -300 -308 324 0
-294 -296 -300 -308 -324 0
325 326 328 332 340 0
325 326 328 332 -340 0
325 326 328 -332 341 0
325 326 328 -332 -341 0
325 326 -328 333 342 0
325 326 -328 333 -342 0
325 326 -328 -333 343 0
325 326 -328 -333 -343 0
325 -326 329 334 344 0
325 -326 329 334 -344 0
325 -326 329 -334 345 0
325 -326 329 -334 -345 0
325 -326 -329 335 346 0
325 -326 -329 335 -346 0
325 -326 -329 -335 347 0
325 -326 -329 -335 -347 0
-325 327 330 336 348 0
-325 327 330 336 -348 0
-325 327 330 -336 349 0
-325 327 330 -336 -349 0
-325 327 -330 337 350 0
-325 327 -330 337 -350 0
-325 327 -330 -337 351 0
-325 327 -330 -337 -351 0
-325 -327 331 338 352 0
-325 -327 331 338 -352 0
-325 -327 331 -338 353 0
-325 -327 331 -338 -353 0
-325 -327 -331 339 354 0
-325 -327 -331 339 -354 0
-325 -327 -331 -339 355 0
-325 -327 -331 -339 -355 0
356 357 359 363 371 0
356 357 359 363 -371 0
356 357 359 -363 372 0
356 357 359 -363 -372 0
356 357 -359 364 373 0
356 357 -359 364 -373 0
356 357 -359 -364 374 0
356 357 -359 -364 -374 0
356 -357 360 365 375 0
356 -357 360 365 -375 0
356 -357 360 -365 376 0
356 -357 360 -365 -376 0
356 -357 -360 366 377 0
356 -357 -360 366 -377 0
356 -357 -360 -366 378 0
356 -357 -360 -366 -378 0
-356 358 361 367 379 0
-356 358 361 367 -379 0
-356 358 361 -367 380 0
-356 358 361 -367 -380 0
-356 358 -361 368 381 0
-356 358 -361 368 -381 0
-356 358 -361 -368 382 0
-356 358 -361 -368 -382 0
-356 -358 362 369 383 0
-356 -358 362 369 -383 0
-356 -358 362 -369 384 0
-356 -358 362 -369 -384 0
-356 -358 -362 370 385 0
-356 -358 -362 370 -385 0
-356 -358 -362 -370 386 0
-356 -358 -362 -370 -386 0

